24 = ndim
6 = nblocks
6 6 6 6 6 6 = blockstruct
0.0, 0.0, 0.0, 0.0, 0.0, 0.0, 0.0, 0.0, 0.0, 0.0, 0.0, 0.0, 0.0, 0.0, 0.0, 0.0, 0.0, 0.0, 0.0, 0.0, 0.0, 0.0, 0.0, 0.0 = objcoeffs
0 1 3 3 -10.206475493998148
0 2 1 1 6.049455522986889
0 2 1 2 0.05581780731254948
0 2 1 3 -0.5337524366871184
0 2 1 6 0.023469175963039213
0 2 2 3 -0.009428484812685323
0 2 2 6 -11.851548128545911
0 2 3 3 -5.889467671853129
0 2 3 4 -0.023469175963039213
0 2 3 5 11.851548128545911
0 3 1 1 3.158769649818726
0 3 1 2 -0.34468343554849495
0 3 1 3 0.619273997251644
0 3 1 6 -0.040069572287191726
0 3 2 3 -0.05467060074711538
0 3 2 6 -6.773787270918821
0 3 3 3 -3.569851785052289
0 3 3 4 0.040069572287191726
0 3 3 5 6.773787270918821
0 4 1 1 -0.24792502746909234
0 4 1 2 -0.08097283260884133
0 4 1 3 -0.052897980057548255
0 4 1 6 -0.5254715545250689
0 4 2 3 -0.008239735853907387
0 4 2 6 -0.0018385283192301899
0 4 3 3 -0.22207964095147018
0 4 3 4 0.5254715545250689
0 4 3 5 0.0018385283192301899
0 5 1 1 -0.06030793776105155
0 5 1 2 -0.01389649800466809
0 5 1 3 -0.05771933189173163
0 5 1 6 0.1577442958252749
0 5 2 3 -0.030616438905117845
0 5 2 6 -0.0563653022568875
0 5 3 3 -0.1033459224491343
0 5 3 4 -0.1577442958252749
0 5 3 5 0.0563653022568875
0 6 1 1 -0.03155826004213949
0 6 1 2 -0.019050391917996644
0 6 1 3 -0.016450579796929723
0 6 1 6 0.013625896367773754
0 6 2 3 -0.026727988360342392
0 6 2 6 0.002650345966034888
0 6 3 3 0.01343635672616497
0 6 3 4 -0.013625896367773754
0 6 3 5 -0.002650345966034888
1 1 1 1 1.0
2 1 1 2 1.0
3 1 1 3 1.0
4 1 2 2 1.0
5 1 2 3 1.0
6 1 2 6 1.0
6 1 3 5 -1.0
7 1 1 6 -1.0
7 1 3 4 1.0
8 1 1 5 1.0
8 1 2 4 -1.0
9 1 4 4 1.0
9 1 5 5 1.0
9 1 6 6 1.0
10 1 3 3 -1.0
10 2 1 1 1.0
10 2 2 2 1.0
11 1 3 3 -0.352
11 2 1 5 1.0
11 2 2 4 -1.0
12 1 3 3 -0.030976
12 2 4 4 1.0
12 2 5 5 1.0
12 2 6 6 1.0
13 1 3 3 -1.0
13 3 1 1 1.0
13 3 2 2 1.0
14 1 3 3 -0.096
14 2 1 3 0.612
14 3 1 5 1.0
14 3 2 4 -1.0
15 1 3 3 -0.376848
15 2 1 1 0.374544
15 2 1 3 -0.078336
15 2 2 6 -0.612
15 2 3 3 -0.374544
15 2 3 5 0.612
15 3 4 4 1.0
15 3 5 5 1.0
15 3 6 6 1.0
16 1 3 3 -1.0
16 4 1 1 1.0
16 4 2 2 1.0
17 1 3 3 -0.328
17 2 1 3 0.612
17 3 1 3 0.572
17 4 1 5 1.0
17 4 2 4 -1.0
18 1 3 3 -0.728624
18 2 1 1 0.374544
18 2 1 3 -0.007344
18 2 2 6 -0.612
18 2 3 3 -0.374544
18 2 3 5 0.612
18 3 1 1 0.327184
18 3 1 3 0.066352
18 3 2 6 -0.572
18 3 3 3 -0.327184
18 3 3 5 0.572
18 4 4 4 1.0
18 4 5 5 1.0
18 4 6 6 1.0
19 4 1 1 -1.0
19 4 3 3 -1.0
19 5 1 1 1.0
19 5 2 2 1.0
20 4 1 1 -0.232
20 4 1 6 -1.0
20 4 3 3 -0.232
20 4 3 4 1.0
20 5 1 5 1.0
20 5 2 4 -1.0
21 1 3 3 -0.728624
21 2 1 1 0.374544
21 2 1 3 -0.007344
21 2 2 6 -0.612
21 2 3 3 -0.374544
21 2 3 5 0.612
21 3 1 1 0.327184
21 3 1 3 0.066352
21 3 2 6 -0.572
21 3 3 3 -0.327184
21 3 3 5 0.572
21 4 1 1 -0.013456
21 4 1 6 -0.116
21 4 3 3 -0.013456
21 4 3 4 0.116
21 5 4 4 1.0
21 5 5 5 1.0
21 5 6 6 1.0
22 5 1 1 -1.0
22 5 3 3 -1.0
22 6 1 1 1.0
22 6 2 2 1.0
23 5 1 1 -0.184
23 5 1 6 1.0
23 5 3 3 -0.184
23 5 3 4 -1.0
23 6 1 5 1.0
23 6 2 4 -1.0
24 1 3 3 -0.728624
24 2 1 1 0.374544
24 2 1 3 -0.007344
24 2 2 6 -0.612
24 2 3 3 -0.374544
24 2 3 5 0.612
24 3 1 1 0.327184
24 3 1 3 0.066352
24 3 2 6 -0.572
24 3 3 3 -0.327184
24 3 3 5 0.572
24 4 1 1 -0.013456
24 4 1 6 -0.116
24 4 3 3 -0.013456
24 4 3 4 0.116
24 5 1 1 -0.008464
24 5 1 6 0.092
24 5 3 3 -0.008464
24 5 3 4 -0.092
24 6 4 4 1.0
24 6 5 5 1.0
24 6 6 6 1.0
